data/solutions/recovery/wellformed/intermediate/flexible/wellformed_intermediate_instance27/53.sol
Elapsed time: 0.07
Upper bound: 81019.0
Planning weighted value: 222459904.0
C[0]=81019.0
C[1]=5781.0
C[2]=5079.0
C[3]=3913.0
C[4]=3581.0
C[5]=1989.0
C[6]=1985.0
C[7]=1981.0
C[8]=1028.0
C[9]=0.0
C[10]=0.0
C[11]=0.0
y[0]=0
y[1]=0
y[2]=0
y[3]=0
y[4]=0
y[5]=0
y[6]=0
y[7]=0
y[8]=0
y[9]=0
y[10]=0
y[11]=0
y[12]=0
y[13]=7
y[14]=0
y[15]=2
y[16]=0
y[17]=0
y[18]=0
y[19]=0
y[20]=0
y[21]=0
y[22]=0
y[23]=0
y[24]=0
y[25]=0
y[26]=4
y[27]=6
y[28]=0
y[29]=0
y[30]=1
y[31]=0
y[32]=0
y[33]=0
y[34]=1
y[35]=0
y[36]=0
y[37]=0
y[38]=0
y[39]=0
y[40]=0
y[41]=0
y[42]=0
y[43]=0
y[44]=0
y[45]=0
y[46]=0
y[47]=0
y[48]=0
y[49]=0
y[50]=0
y[51]=0
y[52]=0
y[53]=0
y[54]=0
y[55]=0
y[56]=0
y[57]=0
y[58]=0
y[59]=0
y[60]=0
y[61]=0
y[62]=0
y[63]=0
y[64]=0
y[65]=0
y[66]=0
y[67]=0
y[68]=0
y[69]=0
y[70]=0
y[71]=0
y[72]=0
y[73]=0
y[74]=0
y[75]=0
y[76]=0
y[77]=3
y[78]=0
y[79]=2
y[80]=0
y[81]=0
y[82]=0
y[83]=3
y[84]=0
y[85]=0
y[86]=0
y[87]=0
y[88]=0
y[89]=0
y[90]=5
y[91]=0
y[92]=0
y[93]=0
y[94]=1
y[95]=0
y[96]=0
y[97]=0
y[98]=0
y[99]=0
y[100]=8
y[101]=4
y[102]=2
