data/solutions/recovery/wellformed/intermediate/flexible/wellformed_intermediate_instance27/53.log

Log started (V12.6.3.0) Sat Apr 21 03:53:42 2018

New value for default parallel thread count: 1

Problem '/tmp/tmpzebYeJ.pyomo.lp' read.
Read time = 0.02 sec. (1.59 ticks)

Problem name         : /tmp/tmpzebYeJ.pyomo.lp
Objective sense      : Minimize
Variables            :    1250  [Nneg: 1,  Binary: 1236,  General Integer: 13]
Objective nonzeros   :       1
Linear constraints   :     231  [Less: 115,  Equal: 116]
  Nonzeros           :  115725
  RHS nonzeros       :     207

Variables            : Min LB: 0.000000         Max UB: 1.000000       
Objective nonzeros   : Min   : 1.000000         Max   : 1.000000       
Linear constraints   :
  Nonzeros           : Min   : 1.000000         Max   : 1992.000       
  RHS nonzeros       : Min   : 1.000000         Max   : 11.00000       
Tried aggregator 2 times.
MIP Presolve eliminated 103 rows and 78 columns.
Aggregator did 19 substitutions.
Reduced MIP has 109 rows, 1153 columns, and 3339 nonzeros.
Reduced MIP has 1152 binaries, 1 generals, 0 SOSs, and 0 indicators.
Presolve time = 0.02 sec. (20.30 ticks)
Found incumbent of value 106356.000000 after 0.02 sec. (23.08 ticks)
Probing time = 0.00 sec. (1.86 ticks)
Tried aggregator 1 time.
Reduced MIP has 109 rows, 1153 columns, and 3339 nonzeros.
Reduced MIP has 1152 binaries, 1 generals, 0 SOSs, and 0 indicators.
Presolve time = 0.00 sec. (1.75 ticks)
Probing time = 0.00 sec. (1.85 ticks)
Clique table members: 96.
MIP emphasis: balance optimality and feasibility.
MIP search method: dynamic search.
Parallel mode: none, using 1 thread.
Root relaxation solution time = 0.00 sec. (2.41 ticks)

        Nodes                                         Cuts/
   Node  Left     Objective  IInf  Best Integer    Best Bound    ItCnt     Gap

*     0+    0                       106356.0000        0.0000           100.00%
*     0     0      integral     0    81019.0000    81019.0000       86    0.00%
Elapsed time = 0.03 sec. (32.20 ticks, tree = 0.00 MB, solutions = 2)

Root node processing (before b&c):
  Real time             =    0.03 sec. (32.25 ticks)
Sequential b&c:
  Real time             =    0.00 sec. (0.00 ticks)
                          ------------
Total (root+branch&cut) =    0.03 sec. (32.25 ticks)

Solution pool: 2 solutions saved.

MIP - Integer optimal solution:  Objective =  8.1019000000e+04
Solution time =    0.03 sec.  Iterations = 86  Nodes = 0
Deterministic time = 32.25 ticks  (1202.88 ticks/sec)


Incumbent solution written to file '/tmp/tmpXnSYB3.cplex.sol'.
